
Gurobi 13.0.1 (linux64) logging started Sat Mar 21 18:06:02 2026

Set parameter LogFile to value "logs/50B_3F_robust_gamma_0d5_theta_0d05199999999999999_2026-03-21_18h05m56s.log"
Gurobi Optimizer version 13.0.1 build v13.0.1rc0 (linux64 - "Linux Mint 22")

CPU model: 12th Gen Intel(R) Core(TM) i7-12700, instruction set [SSE2|AVX|AVX2]
Thread count: 20 physical cores, 20 logical processors, using up to 20 threads

Non-default parameters:
TimeLimit  3600
SoftMemLimit  12

Optimize a model with 30471 rows, 390571 columns and 1204034 nonzeros (Max)
Model fingerprint: 0xa7468631
Model has 367561 linear objective coefficients
Variable types: 8071 continuous, 382500 integer (382500 binary)
Coefficient statistics:
  Matrix range     [3e-05, 1e+05]
  Objective range  [1e+00, 3e+03]
  Bounds range     [1e+00, 1e+05]
  RHS range        [8e-03, 1e+05]

Presolve removed 15658 rows and 282196 columns
Presolve time: 0.61s
Presolved: 14813 rows, 108375 columns, 345908 nonzeros
Variable types: 3921 continuous, 104454 integer (104454 binary)
Found heuristic solution: objective -3.92155e+08
Deterministic concurrent LP optimizer: primal and dual simplex
Showing primal log only...

Concurrent spin time: 0.32s (can be avoided by choosing Method=3)

Solved with dual simplex

Root relaxation: objective 8.517386e+07, 10059 iterations, 2.24 seconds (3.62 work units)

    Nodes    |    Current Node    |     Objective Bounds      |     Work
 Expl Unexpl |  Obj  Depth IntInf | Incumbent    BestBd   Gap | It/Node Time

     0     0 8.5174e+07    0 3702 -3.922e+08 8.5174e+07   122%     -    3s
H    0     0                    -1.97785e+08 8.5174e+07   143%     -    3s
H    0     0                    -1.54441e+08 8.5174e+07   155%     -    3s
H    0     0                    -5.11049e+07 8.5174e+07   267%     -    3s
H    0     0                    -3.19447e+07 8.5174e+07   367%     -    4s
H    0     0                    -1.01655e+07 8.5174e+07   938%     -    4s
H    0     0                    -5682594.770 8.5174e+07  1599%     -    5s
H    0     0                    6340082.4368 8.5174e+07  1243%     -    6s
H    0     0                    1.638749e+07 8.5174e+07   420%     -    9s
H    0     0                    2.963935e+07 8.5174e+07   187%     -   10s
H    0     0                    3.198772e+07 8.5174e+07   166%     -   11s
H    0     0                    3.290433e+07 8.5174e+07   159%     -   11s
H    0     0                    5.226038e+07 8.5174e+07  63.0%     -   13s
H    0     0                    5.967493e+07 8.5174e+07  42.7%     -   13s
H    0     0                    6.146042e+07 8.5174e+07  38.6%     -   14s
H    0     0                    6.153316e+07 8.5174e+07  38.4%     -   14s
H    0     0                    6.182152e+07 8.5174e+07  37.8%     -   14s
     0     0 8.5174e+07    0 3624 6.1822e+07 8.5174e+07  37.8%     -   19s
H    0     0                    6.203665e+07 8.5174e+07  37.3%     -   24s
H    0     0                    6.257313e+07 8.5174e+07  36.1%     -   37s
     0     0 8.5174e+07    0 3735 6.2573e+07 8.5174e+07  36.1%     -   37s
     0     0 8.5173e+07    0 4326 6.2573e+07 8.5173e+07  36.1%     -   42s
     0     0 8.5173e+07    0 4959 6.2573e+07 8.5173e+07  36.1%     -   45s
     0     0 8.5173e+07    0 4898 6.2573e+07 8.5173e+07  36.1%     -   46s
     0     0 8.5173e+07    0 5021 6.2573e+07 8.5173e+07  36.1%     -   50s
     0     0 8.5173e+07    0 5374 6.2573e+07 8.5173e+07  36.1%     -   52s
     0     0 8.5173e+07    0 5391 6.2573e+07 8.5173e+07  36.1%     -   54s
     0     0 8.5173e+07    0 5391 6.2573e+07 8.5173e+07  36.1%     -   55s
     0     0 8.5173e+07    0 4850 6.2573e+07 8.5173e+07  36.1%     -   56s
     0     2 8.5173e+07    0 4780 6.2573e+07 8.5173e+07  36.1%     -   79s
     1     4 8.5173e+07    1 4906 6.2573e+07 8.5173e+07  36.1%   629   81s
     3     8 8.5173e+07    2 4894 6.2573e+07 8.5173e+07  36.1%   903   86s
H    7    16                    6.423260e+07 8.5173e+07  32.6%  1869   92s
H    8    16                    6.462051e+07 8.5173e+07  31.8%  1771   92s
    15    32 8.5173e+07    4 4994 6.4621e+07 8.5173e+07  31.8%  2384  122s
    31    52 8.5173e+07    5 5217 6.4621e+07 8.5173e+07  31.8%  5131  140s
H   32    52                    6.462382e+07 8.5173e+07  31.8%  4971  140s
H   36    52                    6.462454e+07 8.5173e+07  31.8%  4537  140s
H   41    52                    6.465919e+07 8.5173e+07  31.7%  4171  140s
H   51   139                    6.501343e+07 8.5173e+07  31.0%  3840  187s
H   55   139                    6.621362e+07 8.5173e+07  28.6%  3671  187s
H   60   139                    6.686544e+07 8.5173e+07  27.4%  3491  187s
H   77   139                    6.742925e+07 8.5173e+07  26.3%  3054  187s
H  138   159                    6.753064e+07 8.5173e+07  26.1%  2414  217s
H  140   159                    6.753065e+07 8.5173e+07  26.1%  2419  217s
H  141   159                    6.753346e+07 8.5173e+07  26.1%  2409  217s
H  143   159                    6.753809e+07 8.5173e+07  26.1%  2385  217s
H  158   255                    6.846390e+07 8.5173e+07  24.4%  2333  277s
H  196   255                    6.857542e+07 8.5173e+07  24.2%  2251  277s
H  222   255                    6.899972e+07 8.5173e+07  23.4%  2198  277s
   254   551 8.5172e+07   11 4868 6.9000e+07 8.5173e+07  23.4%  2049  423s
H  550   571                    6.900438e+07 8.5173e+07  23.4%  1810  578s
H  551   571                    6.911383e+07 8.5173e+07  23.2%  1814  578s
H  553   571                    6.945886e+07 8.5173e+07  22.6%  1813  578s
H  559   571                    6.956135e+07 8.5173e+07  22.4%  1818  578s
H  570   610                    7.150066e+07 8.5173e+07  19.1%  1808  737s
H  572   610                    7.214728e+07 8.5173e+07  18.1%  1806  737s
   609  1418 8.5170e+07   25 3837 7.2147e+07 8.5173e+07  18.1%  1814 1145s
H 1290  1418                    7.214802e+07 8.5173e+07  18.1%  1679 1145s
  1417  2928 8.5169e+07   44 3944 7.2148e+07 8.5173e+07  18.1%  1657 1752s
H 2927  3788                    7.225133e+07 8.5173e+07  17.9%  1483 2114s
H 2959  3788                    7.227812e+07 8.5173e+07  17.8%  1482 2114s
H 2991  3788                    7.227925e+07 8.5173e+07  17.8%  1480 2114s
H 3183  3788                    7.228012e+07 8.5173e+07  17.8%  1482 2114s
H 3793  4103                    7.228629e+07 8.5173e+07  17.8%  1379 2401s
H 3794  4103                    7.228799e+07 8.5173e+07  17.8%  1379 2401s
H 3795  4102                    7.239571e+07 8.5173e+07  17.6%  1379 2401s
H 3857  4102                    7.240077e+07 8.5173e+07  17.6%  1376 2401s
H 3885  4102                    7.247112e+07 8.5173e+07  17.5%  1373 2401s
  4245  7146 8.5162e+07  107 2777 7.2471e+07 8.5173e+07  17.5%  1332 2984s
H 7290 10499                    7.247310e+07 8.5173e+07  17.5%  1122 3237s
H 7491 10499                    7.250911e+07 8.5173e+07  17.5%  1103 3237s
H 7793 10499                    7.274972e+07 8.5173e+07  17.1%  1078 3237s
H10643 13721                    7.275134e+07 8.5173e+07  17.1%   888 3401s
H11554 13721                    7.285239e+07 8.5173e+07  16.9%   836 3401s
H13917 13708                    7.285294e+07 8.5173e+07  16.9%   749 3403s
 13918 13709 8.2376e+07  286 4850 7.2853e+07 8.5173e+07  16.9%   749 3540s
H13919 13024                    7.285365e+07 8.5173e+07  16.9%   749 3545s
H13919 12373                    7.285372e+07 8.5173e+07  16.9%   749 3547s
H13919 11754                    7.285420e+07 8.5173e+07  16.9%   749 3547s
H13919 11166                    7.285489e+07 8.5173e+07  16.9%   749 3549s
H13919 10608                    7.285593e+07 8.5173e+07  16.9%   749 3549s
 13920 10608 8.5140e+07   48 3689 7.2856e+07 8.5173e+07  16.9%   749 3553s
 13921 10609 8.2635e+07  257 3886 7.2856e+07 8.5173e+07  16.9%   749 3576s
 13922 10610 7.4390e+07  610 4661 7.2856e+07 8.5173e+07  16.9%   749 3582s
 13923 10610 8.5170e+07   41 5621 7.2856e+07 8.5173e+07  16.9%   749 3587s
 13924 10611 8.4256e+07  180 5398 7.2856e+07 8.5172e+07  16.9%   749 3590s
 13925 10612 7.6298e+07  801 5456 7.2856e+07 8.5172e+07  16.9%   748 3595s

Cutting planes:
  Gomory: 15
  MIR: 73
  Flow cover: 236
  Mod-K: 2
  RLT: 1708

Explored 13925 nodes (10489236 simplex iterations) in 3600.48 seconds (2900.92 work units)
Thread count was 20 (of 20 available processors)

Solution count 10: 7.28559e+07 7.28549e+07 7.28542e+07 ... 7.25091e+07

Time limit reached
Best objective 7.285592750464e+07, best bound 8.517230543724e+07, gap 16.9051%
